Pb  N  O Pb  N  O Pb  N  O Pb  N  O Pb  N  O Pb  N  O Pb  N  O Pb  N  O Pb  N  O 
 1.0000000000000000
    15.6977705423413560    0.0000000000000000    0.0000000000000000
     7.8488852711706780   13.5946680724466376    0.0000000000000000
     0.0000000000000000    0.0000000000000000   34.2723919920032287
  Pb  N  O Pb  N  O Pb  N  O Pb  N  O Pb  N  O Pb  N  O Pb  N  O Pb  N  O Pb  N  O 
  12   1   1  12   1   1  12   1   1  12   1   1  12   1   1  12   1   1  12   1   1  12   1   1  12   1   1
Cartesian
  1.3081475451951130  0.7552593373581465 15.0000000000000000
  3.9244426355853390  0.7552593373581465 15.0000000000000000
  2.6162950903902260  3.0210373494325862 15.0000000000000000
  5.2325901807804520  3.0210373494325862 15.0000000000000000
 -0.0000000000000000  1.5105186747162931 17.1361959960016144
  2.6162950903902260  1.5105186747162931 17.1361959960016144
  1.3081475451951128  3.7762966867907326 17.1361959960016144
  3.9244426355853390  3.7762966867907326 17.1361959960016144
  0.0000000000000000  0.0000000000000000 19.2723919920032287
  2.6162950903902260  0.0000000000000000 19.2723919920032287
  1.3081475451951130  2.2657780120744397 19.2723919920032287
  3.9244426355853390  2.2657780120744397 19.2723919920032287
  0.0000000000000000  0.0000000000000000 21.1723919920032273
  0.0000000000000000  0.0000000000000000 22.2723919920032287
  3.9244426355853390  5.2868153615070259 15.0000000000000000
  6.5407377259755650  5.2868153615070259 15.0000000000000000
  5.2325901807804520  7.5525933735814661 15.0000000000000000
  7.8488852711706780  7.5525933735814661 15.0000000000000000
  2.6162950903902260  6.0420746988651723 17.1361959960016144
  5.2325901807804520  6.0420746988651723 17.1361959960016144
  3.9244426355853390  8.3078527109396116 17.1361959960016144
  6.5407377259755650  8.3078527109396116 17.1361959960016144
  2.6162950903902260  4.5315560241488795 19.2723919920032287
  5.2325901807804520  4.5315560241488795 19.2723919920032287
  3.9244426355853390  6.7973340362233188 19.2723919920032287
  6.5407377259755650  6.7973340362233188 19.2723919920032287
  2.6162950903902260  4.5315560241488795 21.1723919920032273
  2.6162950903902260  4.5315560241488795 22.2723919920032287
  6.5407377259755650  9.8183713856559063 15.0000000000000000
  9.1570328163657919  9.8183713856559063 15.0000000000000000
  7.8488852711706780 12.0841493977303447 15.0000000000000000
 10.4651803615609040 12.0841493977303447 15.0000000000000000
  5.2325901807804520 10.5736307230140518 17.1361959960016144
  7.8488852711706780 10.5736307230140518 17.1361959960016144
  6.5407377259755650 12.8394087350884920 17.1361959960016144
  9.1570328163657919 12.8394087350884920 17.1361959960016144
  5.2325901807804520  9.0631120482977590 19.2723919920032287
  7.8488852711706780  9.0631120482977590 19.2723919920032287
  6.5407377259755650 11.3288900603721991 19.2723919920032287
  9.1570328163657919 11.3288900603721991 19.2723919920032287
  5.2325901807804520  9.0631120482977590 21.1723919920032273
  5.2325901807804520  9.0631120482977590 22.2723919920032287
  6.5407377259755650  0.7552593373581465 15.0000000000000000
  9.1570328163657919  0.7552593373581465 15.0000000000000000
  7.8488852711706780  3.0210373494325862 15.0000000000000000
 10.4651803615609040  3.0210373494325862 15.0000000000000000
  5.2325901807804520  1.5105186747162931 17.1361959960016144
  7.8488852711706780  1.5105186747162931 17.1361959960016144
  6.5407377259755650  3.7762966867907326 17.1361959960016144
  9.1570328163657919  3.7762966867907326 17.1361959960016144
  5.2325901807804520  0.0000000000000000 19.2723919920032287
  7.8488852711706780  0.0000000000000000 19.2723919920032287
  6.5407377259755650  2.2657780120744397 19.2723919920032287
  9.1570328163657919  2.2657780120744397 19.2723919920032287
  5.2325901807804520  0.0000000000000000 21.1723919920032273
  5.2325901807804520  0.0000000000000000 22.2723919920032287
  9.1570328163657919  5.2868153615070259 15.0000000000000000
 11.7733279067560161  5.2868153615070259 15.0000000000000000
 10.4651803615609040  7.5525933735814661 15.0000000000000000
 13.0814754519511300  7.5525933735814661 15.0000000000000000
  7.8488852711706780  6.0420746988651723 17.1361959960016144
 10.4651803615609040  6.0420746988651723 17.1361959960016144
  9.1570328163657901  8.3078527109396116 17.1361959960016144
 11.7733279067560161  8.3078527109396116 17.1361959960016144
  7.8488852711706780  4.5315560241488795 19.2723919920032287
 10.4651803615609040  4.5315560241488795 19.2723919920032287
  9.1570328163657919  6.7973340362233188 19.2723919920032287
 11.7733279067560161  6.7973340362233188 19.2723919920032287
  7.8488852711706780  4.5315560241488795 21.1723919920032273
  7.8488852711706780  4.5315560241488795 22.2723919920032287
 11.7733279067560161  9.8183713856559063 15.0000000000000000
 14.3896229971462439  9.8183713856559063 15.0000000000000000
 13.0814754519511300 12.0841493977303447 15.0000000000000000
 15.6977705423413560 12.0841493977303447 15.0000000000000000
 10.4651803615609040 10.5736307230140518 17.1361959960016144
 13.0814754519511300 10.5736307230140518 17.1361959960016144
 11.7733279067560161 12.8394087350884920 17.1361959960016144
 14.3896229971462439 12.8394087350884920 17.1361959960016144
 10.4651803615609040  9.0631120482977590 19.2723919920032287
 13.0814754519511300  9.0631120482977590 19.2723919920032287
 11.7733279067560161 11.3288900603721991 19.2723919920032287
 14.3896229971462439 11.3288900603721991 19.2723919920032287
 10.4651803615609040  9.0631120482977590 21.1723919920032273
 10.4651803615609040  9.0631120482977590 22.2723919920032287
 11.7733279067560161  0.7552593373581465 15.0000000000000000
 14.3896229971462439  0.7552593373581465 15.0000000000000000
 13.0814754519511300  3.0210373494325862 15.0000000000000000
 15.6977705423413560  3.0210373494325862 15.0000000000000000
 10.4651803615609040  1.5105186747162931 17.1361959960016144
 13.0814754519511300  1.5105186747162931 17.1361959960016144
 11.7733279067560161  3.7762966867907326 17.1361959960016144
 14.3896229971462439  3.7762966867907326 17.1361959960016144
 10.4651803615609040  0.0000000000000000 19.2723919920032287
 13.0814754519511300  0.0000000000000000 19.2723919920032287
 11.7733279067560161  2.2657780120744397 19.2723919920032287
 14.3896229971462439  2.2657780120744397 19.2723919920032287
 10.4651803615609040  0.0000000000000000 21.1723919920032273
 10.4651803615609040  0.0000000000000000 22.2723919920032287
 14.3896229971462439  5.2868153615070259 15.0000000000000000
 17.0059180875364682  5.2868153615070259 15.0000000000000000
 15.6977705423413560  7.5525933735814661 15.0000000000000000
 18.3140656327315838  7.5525933735814661 15.0000000000000000
 13.0814754519511300  6.0420746988651723 17.1361959960016144
 15.6977705423413560  6.0420746988651723 17.1361959960016144
 14.3896229971462422  8.3078527109396116 17.1361959960016144
 17.0059180875364682  8.3078527109396116 17.1361959960016144
 13.0814754519511300  4.5315560241488795 19.2723919920032287
 15.6977705423413560  4.5315560241488795 19.2723919920032287
 14.3896229971462439  6.7973340362233188 19.2723919920032287
 17.0059180875364682  6.7973340362233188 19.2723919920032287
 13.0814754519511300  4.5315560241488795 21.1723919920032273
 13.0814754519511300  4.5315560241488795 22.2723919920032287
 17.0059180875364682  9.8183713856559063 15.0000000000000000
 19.6222131779266959  9.8183713856559063 15.0000000000000000
 18.3140656327315838 12.0841493977303447 15.0000000000000000
 20.9303607231218081 12.0841493977303447 15.0000000000000000
 15.6977705423413560 10.5736307230140518 17.1361959960016144
 18.3140656327315838 10.5736307230140518 17.1361959960016144
 17.0059180875364682 12.8394087350884920 17.1361959960016144
 19.6222131779266959 12.8394087350884920 17.1361959960016144
 15.6977705423413560  9.0631120482977590 19.2723919920032287
 18.3140656327315838  9.0631120482977590 19.2723919920032287
 17.0059180875364682 11.3288900603721991 19.2723919920032287
 19.6222131779266959 11.3288900603721991 19.2723919920032287
 15.6977705423413560  9.0631120482977590 21.1723919920032273
 15.6977705423413560  9.0631120482977590 22.2723919920032287
